Route #1: 1 13 6 11 40 11 31 35 51 39 51 17 33 1 
Route #2: 1 28 33 23 3 36 4 36 37 36 21 3 12 47 1 
Route #3: 1 24 25 24 8 24 49 24 7 1 
Route #4: 1 19 15 19 48 13 18 13 38 13 1 
Route #5: 1 19 14 42 41 20 43 20 5 19 26 19 1 
Route #6: 1 13 46 16 45 46 34 11 50 10 51 22 51 30 3 1 
Route #7: 1 33 32 9 32 27 32 29 32 2 33 1 
Cost 852.0
